&control
 calculation = 'scf'
 prefix='gaas',
 pseudo_dir = '../pot/',
 outdir='./work/'
 tstress = .true.
 tprnfor = .true.
 disk_io='low'
/
&system
 ibrav = 0,
 nat = 54,
 ntyp = 2,
 ecutwfc = 80.0,
 ecutrho = 400.0,
 occupations = 'smearing'
 nspin = 1
 smearing = 'gaussian'
 degauss = 0.005
/
&electrons
 electron_maxstep = 200
 mixing_beta = 0.3
 conv_thr = 1.0d-8
/
&ions
/
&cell
/
K_POINTS automatic
4 4 4 0 0 0
